;; sequence(s): A334716
;; terms: 1 1 5 20 105 644 4585 37134 337393 3399416 37622961 453769370 5924234041 83242063332 1252567177849 20096182035734 342461702459745 6177536369911664 117598028364137953 2356007639327453106
;; small program: loop((x * y) + loop(0 - x, y, 1), x, 1 + x)
;; fast program: loop(1 - (x * y), x, 1 + x) * loop(0 - x, x mod 2, 1)
(set-logic UFNIA)
(define-fun modf ((a Int) (b Int)) Int (ite (< 0 b) (mod a b) (- (mod (- a) (- b)))))
(declare-fun f1 (Int) Int)
(declare-fun g1 (Int Int) Int)
(declare-fun h1 () Int)
(declare-fun u1 (Int Int) Int)
(declare-fun v1 (Int Int) Int)
(declare-fun f0 (Int Int) Int)
(declare-fun g0 (Int) Int)
(declare-fun h0 (Int) Int)
(declare-fun u0 (Int Int) Int)
(declare-fun v0 (Int) Int)
(declare-fun small (Int) Int)
(declare-fun f2 (Int Int) Int)
(declare-fun g2 (Int) Int)
(declare-fun h2 (Int) Int)
(declare-fun u2 (Int Int) Int)
(declare-fun v2 (Int) Int)
(declare-fun f3 (Int) Int)
(declare-fun g3 (Int) Int)
(declare-fun h3 () Int)
(declare-fun u3 (Int Int) Int)
(declare-fun v3 (Int) Int)
(declare-fun fast (Int) Int)
(assert (forall ((x Int)) (= (f1 x) (- 0 x))))
(assert (forall ((x Int) (y Int)) (= (g1 x y) y)))
(assert (= h1 1))
(assert (forall ((x Int) (y Int)) (= (u1 x y) (ite (<= x 0) y (f1 (u1 (- x 1) y))))))
(assert (forall ((x Int) (y Int)) (= (v1 x y) (u1 (g1 x y) h1))))
(assert (forall ((x Int) (y Int)) (= (f0 x y) (+ (* x y) (v1 x y)))))
(assert (forall ((x Int)) (= (g0 x) x)))
(assert (forall ((x Int)) (= (h0 x) (+ 1 x))))
(assert (forall ((x Int) (y Int)) (= (u0 x y) (ite (<= x 0) y (f0 (u0 (- x 1) y) x)))))
(assert (forall ((x Int)) (= (v0 x) (u0 (g0 x) (h0 x)))))
(assert (forall ((x Int)) (= (small x) (v0 x))))
(assert (forall ((x Int) (y Int)) (= (f2 x y) (- 1 (* x y)))))
(assert (forall ((x Int)) (= (g2 x) x)))
(assert (forall ((x Int)) (= (h2 x) (+ 1 x))))
(assert (forall ((x Int) (y Int)) (= (u2 x y) (ite (<= x 0) y (f2 (u2 (- x 1) y) x)))))
(assert (forall ((x Int)) (= (v2 x) (u2 (g2 x) (h2 x)))))
(assert (forall ((x Int)) (= (f3 x) (- 0 x))))
(assert (forall ((x Int)) (= (g3 x) (modf x 2))))
(assert (= h3 1))
(assert (forall ((x Int) (y Int)) (= (u3 x y) (ite (<= x 0) y (f3 (u3 (- x 1) y))))))
(assert (forall ((x Int)) (= (v3 x) (u3 (g3 x) h3))))
(assert (forall ((x Int)) (= (fast x) (* (v2 x) (v3 x)))))
(assert (exists ((c Int)) (and (>= c 0) (not (= (small c) (fast c))))))
(check-sat)
